c WARNING: for repeatability, setting FPU to use double precision
d VARIABLES            26816        
d CONSTRAINTS          90792        
c ============================[ Problem Statistics ]=============================
c |                                                                             |
c |  Number of variables:         26816                                         |
c |  Number of clauses:           90792                                         |
c |  Parse time:                   0.01 s                                       |
c |                                                                             |
c ============================[ Search Statistics ]==============================
c | Conflicts |          ORIGINAL         |          LEARNT          | Progress |
c |           |    Vars  Clauses Literals |    Limit  Clauses Lit/Cl |          |
c ===============================================================================
c |       100 |   17231    66162   166521 |    24259      100      8 | 35.744 % |
c |       250 |   17231    66162   166521 |    26685      250     20 | 35.744 % |
c |       475 |   17231    66162   166521 |    29353      475     27 | 35.744 % |
c |       812 |   17231    66162   166521 |    32289      812     21 | 35.744 % |
c |      1318 |   17231    66162   166521 |    35518     1318     29 | 35.744 % |
c |      2077 |   17231    66162   166521 |    39070     2077     29 | 35.744 % |
c |      3216 |   17231    66162   166521 |    42977     3216     50 | 35.744 % |
c |      4924 |   17231    66162   166521 |    47274     4924     50 | 35.744 % |
c |      7486 |   17231    66162   166521 |    52002     7486     63 | 35.744 % |
c |     11330 |   17231    66162   166521 |    57202    11330     81 | 35.744 % |
c |     17096 |   17230    66158   166511 |    62922    17095     89 | 35.747 % |
c |     25745 |   17230    66158   166511 |    69214    25744     97 | 35.747 % |
c |     38719 |   17228    66150   166491 |    76136    38716    112 | 35.755 % |
c |     58180 |   17228    66150   166491 |    83750    58177    119 | 35.755 % |
c |     87372 |   17228    66150   166491 |    92125    87369    124 | 35.755 % |
c |    131161 |   17228    66150   166491 |   101337    48368    112 | 35.755 % |
c |    196845 |   17228    66150   166491 |   111471    23188     90 | 35.755 % |
c |    295371 |   17228    66150   166491 |   122618    26382     83 | 35.755 % |
c |    443160 |   17228    66150   166491 |   134880    69097    126 | 35.755 % |
c |    664843 |   17228    66150   166491 |   148368    57164     81 | 35.755 % |
c |    997368 |   17228    66150   166491 |   163205   130073    133 | 35.755 % |
c |   1496156 |   17228    66150   166491 |   179525    32120     60 | 35.755 % |
c |   2244338 |   17228    66150   166491 |   197478   126624    172 | 35.755 % |
c |   3366612 |   17227    66146   166481 |   217226   161630    125 | 35.759 % |
c |   5050023 |   17227    66146   166481 |   238948    24959    115 | 35.759 % |
c ===============================================================================
c restarts              : 8191
c conflicts             : 5147383        (2874 /sec)
c decisions             : 10600199       (0.00 % random) (5919 /sec)
c propagations          : 5262917887     (2938674 /sec)
c conflict literals     : 733239260      (29.69 % deleted)
d RESTARTS             8191
d FAILURES             5147383      
d NODES                10600199     
d BACKTRACKS           10600199     
d PROPAGATIONS         5262917887   
d NOGOODSIZE           142.45 
d MEMORY               322.00 
d TIME                 1790.92 

s UNKNOWN
